NAME: tsptoy-20.tsp
TYPE: TSP
COMMENT: TSP-ToyProblem-20-100-300
DIMENSION: 20
EDGE_WEIGHT_TYPE: EUC_2D
NODE_COORD_SECTION
1 143 103
2 262 221
3 202 162
4 184 226
5 169 142
6 102 201
7 161 256
8 102 256
9 281 222
10 105 102
11 180 115
12 242 123
13 284 112
14 234 276
15 198 165
16 144 129
17 269 211
18 149 181
19 167 119
20 292 205
EOF